SDVRP instances/custom_instances/p04_5_splitx10_0.vrp
NAME:p04_5_splitx10_
BEST_KNOWN: 0
COMMENT: 0
DIMENSION: 661
CAPACITY: 2000
EDGE_WEIGHT_FORMAT: FUNCTION
EDGE_WEIGHT_TYPE: EXACT_2D
NODE_COORD_SECTION
1 0.00000 0.00000
2 -36 48
3 -36 48
4 -36 48
5 -36 48
6 -10 -39
7 -10 -39
8 -10 -39
9 -10 -39
10 -10 -39
11 12 5
12 12 5
13 12 5
14 12 5
15 12 5
16 12 5
17 -29 32
18 -29 32
19 -29 32
20 -41 -33
21 -41 -33
22 -41 -33
23 38 16
24 38 16
25 38 16
26 38 16
27 31 -41
28 31 -41
29 -11 -47
30 -11 -47
31 -11 -47
32 -11 -47
33 -11 -47
34 34 -48
35 34 -48
36 34 -48
37 -10 3
38 -10 3
39 -10 3
40 -10 3
41 -10 3
42 -37 8
43 -37 8
44 -6 39
45 -6 39
46 -6 39
47 -6 39
48 -6 39
49 -6 39
50 -6 39
51 -6 39
52 -24 -43
53 -24 -43
54 -24 -43
55 34 42
56 34 42
57 34 42
58 34 42
59 18 -3
60 18 -3
61 18 -3
62 18 -3
63 18 -3
64 18 -3
65 18 -3
66 -45 29
67 -45 29
68 -45 29
69 -45 29
70 -45 29
71 44 44
72 44 44
73 44 44
74 44 44
75 44 44
76 44 44
77 -50 27
78 -50 27
79 -50 27
80 31 -50
81 31 -50
82 31 -50
83 31 -50
84 31 -50
85 31 -50
86 0 -31
87 14 -43
88 14 -43
89 14 -43
90 14 -43
91 -37 -10
92 -37 -10
93 -37 -10
94 -10 34
95 -10 34
96 -10 34
97 -10 34
98 -10 34
99 2 35
100 2 35
101 2 35
102 2 35
103 2 35
104 2 35
105 -43 -10
106 -43 -10
107 -43 -10
108 -43 -10
109 -43 -10
110 16 40
111 16 40
112 16 40
113 16 40
114 -9 41
115 -9 41
116 -9 41
117 -9 41
118 -49 -40
119 -49 -40
120 -49 -40
121 34 26
122 34 26
123 34 26
124 34 26
125 34 26
126 34 26
127 -1 -25
128 -1 -25
129 -1 -25
130 -50 -9
131 -50 -9
132 -50 -9
133 -50 -9
134 -50 -9
135 -50 -9
136 17 30
137 17 30
138 33 -19
139 33 -19
140 33 -19
141 -12 -1
142 -12 -1
143 -12 -1
144 -12 -1
145 -12 -1
146 -12 -1
147 -12 -1
148 14 -34
149 14 -34
150 14 -34
151 14 -34
152 -50 -43
153 -50 -43
154 -50 -43
155 -2 -44
156 -2 -44
157 -2 -44
158 -2 -44
159 -2 -44
160 9 -7
161 9 -7
162 9 -7
163 -33 -32
164 -33 -32
165 -33 -32
166 -33 -32
167 -33 -32
168 -33 -32
169 -33 -32
170 39 -26
171 39 -26
172 39 -26
173 -15 -31
174 -15 -31
175 -15 -31
176 -15 -31
177 -15 -31
178 25 25
179 25 25
180 25 25
181 25 25
182 25 25
183 25 25
184 25 25
185 20 11
186 20 11
187 20 11
188 37 4
189 37 4
190 37 4
191 -29 -32
192 -29 -32
193 -29 -32
194 -29 -32
195 -29 -32
196 27 -28
197 27 -28
198 27 -28
199 11 5
200 11 5
201 11 5
202 -23 17
203 -23 17
204 -23 17
205 -23 17
206 19 -15
207 19 -15
208 19 -15
209 19 -15
210 19 -15
211 19 -15
212 50 -36
213 50 -36
214 50 -36
215 -5 -35
216 -5 -35
217 -5 -35
218 -5 -35
219 -5 3
220 -5 3
221 -5 3
222 -5 3
223 -5 3
224 -5 3
225 -5 3
226 -5 3
227 -35 1
228 -35 1
229 -35 1
230 -35 1
231 -11 37
232 -11 37
233 -11 37
234 49 -39
235 49 -39
236 -40 6
237 -40 6
238 -40 6
239 -40 6
240 -40 6
241 -40 6
242 5 30
243 5 30
244 5 30
245 20 -43
246 20 -43
247 20 -43
248 20 -43
249 20 -43
250 20 -43
251 -23 -4
252 -23 -4
253 -23 -4
254 -23 -4
255 -17 49
256 -17 49
257 -17 49
258 -17 49
259 -3 46
260 -3 46
261 -3 46
262 -3 46
263 -3 46
264 25 -15
265 25 -15
266 25 -15
267 25 -15
268 31 -20
269 31 -20
270 31 -20
271 -8 -25
272 -8 -25
273 -8 -25
274 -8 -25
275 -8 -25
276 -8 -25
277 31 29
278 31 29
279 31 29
280 31 29
281 31 29
282 31 29
283 39 27
284 39 27
285 39 27
286 39 27
287 39 27
288 39 27
289 -11 -44
290 -11 -44
291 -11 -44
292 -11 -44
293 -11 -44
294 5 -19
295 5 -19
296 5 -19
297 -50 14
298 -50 14
299 -50 14
300 -50 14
301 18 45
302 18 45
303 18 45
304 18 45
305 18 45
306 -25 25
307 -25 25
308 -25 25
309 35 17
310 35 17
311 35 17
312 35 17
313 30 -24
314 30 -24
315 30 -24
316 30 -24
317 30 -24
318 29 -9
319 29 -9
320 -26 22
321 -26 22
322 -26 22
323 -26 22
324 -26 22
325 -26 22
326 -26 22
327 -38 -42
328 -38 -42
329 -38 -42
330 -38 -42
331 -13 -4
332 -13 -4
333 -13 -4
334 -13 -4
335 -13 -4
336 -13 -4
337 -22 46
338 -22 46
339 -22 46
340 -22 46
341 -2 15
342 -2 15
343 -2 15
344 -2 15
345 -2 15
346 -2 15
347 -2 15
348 9 -29
349 9 -29
350 9 -29
351 9 -29
352 9 -29
353 9 -29
354 35 -18
355 35 -18
356 35 -18
357 35 -18
358 35 -18
359 -29 27
360 -29 27
361 34 18
362 34 18
363 34 18
364 34 18
365 -16 28
366 -16 28
367 -16 28
368 -16 28
369 -16 28
370 -16 28
371 1 23
372 1 23
373 1 23
374 1 23
375 -24 27
376 -24 27
377 -24 27
378 -24 27
379 -2 -11
380 20 14
381 20 14
382 20 14
383 -36 13
384 -36 13
385 -36 13
386 42 -30
387 42 -30
388 42 -30
389 42 -30
390 42 -30
391 42 -30
392 42 -30
393 17 -29
394 17 -29
395 17 -29
396 17 -29
397 17 -29
398 17 -29
399 -11 -8
400 -11 -8
401 -11 -8
402 35 23
403 35 23
404 35 23
405 35 23
406 35 23
407 35 23
408 -6 12
409 -6 12
410 -35 3
411 -35 3
412 -35 3
413 -35 3
414 -35 3
415 -35 3
416 40 19
417 40 19
418 40 19
419 40 19
420 -30 -29
421 -30 -29
422 -30 -29
423 37 -34
424 37 -34
425 -11 -47
426 -11 -47
427 -11 -47
428 -11 -47
429 -11 49
430 -11 49
431 -11 49
432 -11 49
433 -11 49
434 -11 49
435 -11 49
436 -16 13
437 -16 13
438 -16 13
439 -16 13
440 -16 13
441 44 5
442 44 5
443 44 5
444 44 5
445 34 10
446 34 10
447 34 10
448 34 10
449 34 10
450 -49 -9
451 -49 -9
452 -49 -9
453 -49 -9
454 -49 -9
455 -49 -9
456 12 30
457 12 30
458 12 30
459 12 30
460 12 30
461 12 30
462 16 38
463 16 38
464 16 38
465 16 38
466 16 38
467 -2 -18
468 -2 -18
469 -2 -18
470 -2 -18
471 4 -2
472 4 -2
473 4 -2
474 23 8
475 23 8
476 50 34
477 50 34
478 50 34
479 50 34
480 50 34
481 24 9
482 24 9
483 24 9
484 24 9
485 24 9
486 -27 -48
487 -27 -48
488 -27 -48
489 -27 -48
490 -27 -48
491 18 -30
492 18 -30
493 18 -30
494 18 -30
495 18 -30
496 0 50
497 0 50
498 0 50
499 0 50
500 0 50
501 24 -5
502 24 -5
503 24 -5
504 24 -5
505 24 -5
506 24 -5
507 8 7
508 8 7
509 8 7
510 8 7
511 8 7
512 8 7
513 8 7
514 12 17
515 12 17
516 12 17
517 12 17
518 -22 -3
519 -22 -3
520 -20 2
521 -20 2
522 -20 2
523 -20 2
524 -20 2
525 -18 16
526 -18 16
527 -18 16
528 -18 16
529 -18 16
530 -18 16
531 -18 16
532 -28 -26
533 -28 -26
534 -28 -26
535 -28 -26
536 26 23
537 26 23
538 26 23
539 26 23
540 26 23
541 11 0
542 11 0
543 11 0
544 11 0
545 11 0
546 19 -9
547 19 -9
548 19 -9
549 19 -9
550 19 -9
551 19 -9
552 -27 -10
553 -27 -10
554 -1 41
555 -1 41
556 -1 41
557 -31 -7
558 -31 -7
559 -31 -7
560 -31 -7
561 -31 -7
562 -31 -7
563 -31 -7
564 36 -27
565 36 -27
566 36 -27
567 36 -27
568 4 47
569 4 47
570 4 47
571 4 47
572 48 -22
573 48 -22
574 48 -22
575 40 6
576 40 6
577 40 6
578 40 6
579 40 6
580 40 6
581 2 -7
582 2 -7
583 2 -7
584 2 -7
585 2 -7
586 -45 21
587 -45 21
588 -45 21
589 -45 21
590 -20 -33
591 -20 -33
592 -20 -33
593 -20 -33
594 -20 -33
595 -20 -33
596 -20 -33
597 15 -12
598 15 -12
599 -36 26
600 -36 26
601 43 50
602 43 50
603 43 50
604 43 50
605 43 50
606 43 50
607 -34 -30
608 -34 -30
609 -34 -30
610 -34 -30
611 -34 -30
612 -34 -30
613 40 36
614 40 36
615 11 -10
616 11 -10
617 11 -10
618 11 -10
619 -49 -22
620 -49 -22
621 -49 -22
622 -49 -22
623 -13 -18
624 -13 -18
625 44 -5
626 44 -5
627 44 -5
628 44 -5
629 44 -5
630 44 -5
631 -44 28
632 -44 28
633 -44 28
634 -44 28
635 -39 -8
636 -39 -8
637 -39 -8
638 -39 -8
639 -39 -8
640 -39 -8
641 2 -40
642 2 -40
643 2 -40
644 2 -40
645 0 -27
646 0 -27
647 -37 -12
648 -37 -12
649 -37 -12
650 3 -5
651 3 -5
652 3 -5
653 3 -5
654 3 -5
655 3 -5
656 -5 17
657 -5 17
658 -5 17
659 -5 17
660 -5 17
661 -5 17
DEMAND_SECTION
1 0
2 400
3 20
4 20
5 20
6 400
7 400
8 20
9 20
10 10
11 200
12 100
13 20
14 20
15 20
16 10
17 400
18 20
19 20
20 200
21 100
22 20
23 200
24 100
25 20
26 10
27 400
28 100
29 200
30 20
31 20
32 20
33 10
34 400
35 100
36 20
37 400
38 200
39 20
40 20
41 10
42 200
43 100
44 400
45 200
46 100
47 20
48 20
49 20
50 20
51 10
52 400
53 400
54 20
55 200
56 20
57 20
58 10
59 400
60 400
61 100
62 20
63 20
64 20
65 10
66 400
67 200
68 20
69 20
70 10
71 400
72 400
73 20
74 20
75 20
76 10
77 400
78 400
79 100
80 200
81 20
82 20
83 20
84 20
85 10
86 400
87 400
88 400
89 100
90 20
91 200
92 100
93 10
94 200
95 20
96 20
97 20
98 20
99 200
100 20
101 20
102 20
103 20
104 10
105 200
106 100
107 20
108 20
109 20
110 400
111 200
112 100
113 10
114 400
115 20
116 20
117 10
118 400
119 200
120 10
121 400
122 400
123 20
124 20
125 20
126 20
127 400
128 400
129 20
130 400
131 400
132 100
133 20
134 20
135 20
136 400
137 400
138 400
139 200
140 10
141 200
142 100
143 20
144 20
145 20
146 20
147 10
148 400
149 200
150 100
151 20
152 400
153 400
154 10
155 200
156 20
157 20
158 20
159 20
160 400
161 400
162 200
163 400
164 400
165 100
166 20
167 20
168 20
169 10
170 400
171 100
172 10
173 400
174 200
175 100
176 20
177 10
178 400
179 400
180 20
181 20
182 20
183 20
184 10
185 400
186 400
187 20
188 400
189 100
190 20
191 400
192 400
193 20
194 20
195 10
196 400
197 400
198 200
199 400
200 100
201 10
202 400
203 400
204 100
205 10
206 200
207 100
208 20
209 20
210 20
211 20
212 400
213 200
214 20
215 200
216 20
217 20
218 10
219 400
220 200
221 100
222 20
223 20
224 20
225 20
226 10
227 400
228 400
229 100
230 20
231 400
232 20
233 10
234 400
235 200
236 200
237 100
238 20
239 20
240 20
241 20
242 400
243 20
244 10
245 200
246 20
247 20
248 20
249 20
250 10
251 400
252 400
253 100
254 20
255 200
256 20
257 20
258 20
259 400
260 400
261 100
262 20
263 10
264 400
265 400
266 100
267 20
268 400
269 100
270 20
271 200
272 100
273 20
274 20
275 20
276 20
277 400
278 200
279 100
280 20
281 20
282 10
283 400
284 200
285 100
286 20
287 20
288 10
289 400
290 400
291 20
292 20
293 10
294 400
295 200
296 20
297 200
298 100
299 20
300 10
301 400
302 400
303 100
304 20
305 10
306 400
307 100
308 20
309 400
310 100
311 20
312 20
313 400
314 100
315 20
316 20
317 20
318 200
319 100
320 400
321 400
322 100
323 20
324 20
325 20
326 20
327 400
328 200
329 100
330 10
331 400
332 200
333 100
334 20
335 20
336 10
337 200
338 100
339 20
340 20
341 400
342 400
343 100
344 20
345 20
346 20
347 10
348 200
349 20
350 20
351 20
352 20
353 10
354 400
355 400
356 100
357 20
358 10
359 400
360 200
361 200
362 20
363 20
364 10
365 400
366 400
367 100
368 20
369 20
370 10
371 400
372 20
373 20
374 20
375 400
376 400
377 100
378 10
379 400
380 400
381 400
382 100
383 200
384 100
385 20
386 400
387 200
388 100
389 20
390 20
391 20
392 10
393 400
394 400
395 20
396 20
397 20
398 20
399 400
400 400
401 10
402 400
403 400
404 100
405 20
406 20
407 20
408 400
409 10
410 400
411 200
412 20
413 20
414 20
415 10
416 400
417 400
418 100
419 10
420 400
421 200
422 100
423 400
424 200
425 400
426 200
427 100
428 20
429 400
430 200
431 100
432 20
433 20
434 20
435 10
436 400
437 100
438 20
439 20
440 10
441 400
442 400
443 20
444 10
445 400
446 200
447 20
448 20
449 20
450 400
451 400
452 100
453 20
454 20
455 20
456 400
457 200
458 100
459 20
460 20
461 10
462 400
463 400
464 100
465 20
466 20
467 400
468 100
469 20
470 10
471 400
472 20
473 20
474 200
475 100
476 400
477 200
478 100
479 20
480 20
481 400
482 200
483 20
484 20
485 20
486 400
487 200
488 20
489 20
490 10
491 400
492 400
493 20
494 20
495 10
496 200
497 20
498 20
499 20
500 10
501 400
502 400
503 100
504 20
505 20
506 10
507 400
508 100
509 20
510 20
511 20
512 20
513 10
514 400
515 400
516 100
517 10
518 400
519 100
520 400
521 400
522 100
523 20
524 10
525 400
526 100
527 20
528 20
529 20
530 20
531 10
532 400
533 200
534 20
535 20
536 200
537 100
538 20
539 20
540 20
541 400
542 100
543 20
544 20
545 10
546 400
547 100
548 20
549 20
550 20
551 10
552 200
553 100
554 200
555 100
556 20
557 400
558 400
559 100
560 20
561 20
562 20
563 10
564 400
565 400
566 100
567 20
568 400
569 200
570 100
571 20
572 400
573 200
574 20
575 400
576 100
577 20
578 20
579 20
580 20
581 200
582 100
583 20
584 20
585 10
586 200
587 100
588 20
589 10
590 400
591 100
592 20
593 20
594 20
595 20
596 10
597 400
598 100
599 400
600 400
601 400
602 400
603 20
604 20
605 20
606 10
607 400
608 400
609 20
610 20
611 20
612 20
613 200
614 100
615 400
616 100
617 20
618 10
619 200
620 100
621 20
622 10
623 400
624 10
625 200
626 20
627 20
628 20
629 20
630 10
631 200
632 100
633 20
634 10
635 400
636 20
637 20
638 20
639 20
640 10
641 400
642 100
643 20
644 20
645 400
646 20
647 400
648 20
649 20
650 200
651 20
652 20
653 20
654 20
655 10
656 400
657 400
658 20
659 20
660 20
661 10
DEPOT_SECTION
1
-1
EOF