SDVRP instances/custom_instances/p04_5_splitx10_0.sol
660 -2 3 1 4 336 337 338 339 255 254 257 256 431 428 433 429 432 434 430 116 114 -13 11 362 361 405 406 401 402 403 404 121 125 124 123 122 120 -15 10 184 185 186 380 379 510 507 511 508 512 -20 21 19 117 118 119 152 153 151 533 532 534 -22 25 24 23 415 416 418 417 310 311 308 309 363 360 -38 40 39 41 42 240 237 410 412 414 413 411 409 227 229 228 226 -49 47 261 259 258 262 260 499 495 498 497 496 569 568 570 567 372 373 -54 57 55 56 600 603 602 604 605 601 71 75 72 73 74 70 -93 115 113 45 48 43 50 44 46 554 555 553 98 103 100 102 101 99 -142 143 134 130 129 132 131 133 450 452 454 449 451 453 635 639 -146 144 140 145 141 521 523 522 520 519 37 36 220 225 -171 170 169 391 387 388 390 386 385 389 422 423 208 210 617 -175 173 176 172 174 53 51 52 592 595 594 589 -181 182 177 179 178 180 183 276 277 278 537 539 536 538 535 -187 189 188 448 444 447 446 445 480 481 483 482 484 -206 209 234 233 212 213 211 572 573 571 -218 436 321 320 324 322 325 319 323 305 307 306 -221 223 219 224 408 407 659 656 657 660 655 658 341 343 346 345 -222 438 437 435 439 203 201 204 202 528 530 525 524 527 529 526 -238 239 235 236 297 299 296 298 77 78 76 588 586 384 383 382 -244 249 246 245 247 248 80 83 84 81 79 82 35 34 33 26 27 490 -250 91 90 92 638 636 637 634 104 105 108 107 106 648 646 647 -251 253 252 561 559 560 562 556 558 557 518 517 -267 268 269 566 563 564 565 312 316 315 314 313 -272 275 9 5 6 7 8 215 214 217 216 85 644 645 -281 279 280 613 612 479 476 478 475 477 283 285 282 287 284 286 381 -291 288 290 289 292 29 30 427 28 31 426 425 424 32 469 467 -295 294 293 351 352 350 347 348 148 147 150 494 493 492 491 650 651 -318 317 357 356 355 354 353 138 137 139 550 546 -335 334 331 333 332 330 398 399 400 378 -340 342 344 97 95 96 94 231 232 230 364 368 366 365 367 369 -358 359 18 17 16 374 377 375 376 -371 370 243 242 241 458 456 455 515 516 513 -397 396 392 395 393 394 195 197 196 597 -421 164 162 163 166 165 168 167 607 606 609 611 608 610 -459 457 460 112 110 111 109 302 301 304 303 300 465 463 464 -462 461 135 136 514 -466 468 126 128 127 271 274 273 270 622 623 -472 471 470 541 544 540 12 14 200 198 199 509 506 -473 474 576 577 579 574 575 578 442 443 441 440 629 628 626 627 625 624 -489 486 487 488 485 326 327 329 328 621 618 620 619 552 551 -502 503 500 505 504 501 59 60 63 61 64 62 58 543 542 -531 419 420 194 192 190 193 191 591 590 593 -549 547 548 545 264 263 266 265 207 205 596 -580 584 583 615 616 614 161 160 159 649 652 653 654 -582 581 349 149 89 87 86 88 158 156 155 157 154 641 642 643 640 -587 585 69 66 65 68 67 630 632 633 631 598 599 0 





OBJ=
4122.534
BEST_KNOWN=
0.000